(set-info :smt-lib-version 2.6)
(set-logic LRA)
(set-info :source |
   Monniaux, David; Quantifier Elimination by Lazy Model Enumeration, CAV 2010
|)
(set-info :category "random")
; ./Mjollnir_examples/B6/formula_156.m
(set-info :status unsat)
(assert
 (forall ((|v17:0| Real) )(forall ((|v16:1| Real) )(forall ((|v15:2| Real) )(forall ((|v14:3| Real) )(forall ((|v13:4| Real) )(forall ((|v12:5| Real) )(exists ((|v11:6| Real) )(exists ((|v10:7| Real) )(exists ((|v9:8| Real) )(exists ((|v8:9| Real) )(exists ((|v7:10| Real) )(exists ((|v6:11| Real) )(forall ((|v5:12| Real) )(forall ((|v4:13| Real) )(forall ((|v3:14| Real) )(forall ((|v2:15| Real) )(forall ((|v1:16| Real) )(forall ((|v0:17| Real) )(let ((?x224 12))
(let ((?x75 5))
(let ((?x735 (* ?x75 |v6:11|)))
(let ((?x95 (- 12)))
(let ((?x728 (* ?x95 |v2:15|)))
(let ((?x244 6))
(let ((?x726 (* ?x244 |v15:2|)))
(let ((?x315 (* ?x224 |v12:5|)))
(let ((?x24 19))
(let ((?x267 (* ?x24 |v7:10|)))
(let ((?x814 (+ (+ (+ (* (- 20) |v2:15|) (* (- 19) |v3:14|)) ?x267) ?x315)))
(let ((?x250 18))
(let ((?x45 (- 10)))
(let ((?x514 (* ?x45 |v12:5|)))
(let ((?x162 (- 4)))
(let ((?x283 (* ?x162 |v1:16|)))
(let ((?x799 (+ (+ (* 13 |v3:14|) (* (- 8) |v11:6|)) (* (- 8) |v5:12|))))
(let ((?x805 (+ (+ (+ (+ ?x799 ?x283) ?x514) (* (- 1) |v17:0|)) (* 9 |v15:2|))))
(let ((?x159 (- 17)))
(let ((?x787 (+ (+ (* 2 |v3:14|) (* 14 |v1:16|)) (* 15 |v15:2|))))
(let ((?x794 (+ (+ (+ (+ ?x787 (* ?x224 |v0:17|)) |v12:5|) (* 7 |v17:0|)) (* ?x159 |v1:16|))))
(let ((?x10 2))
(let ((?x79 (- 2)))
(let ((?x80 (* ?x79 |v1:16|)))
(let ((?x53 20))
(let ((?x555 (* ?x53 |v3:14|)))
(let ((?x259 (* ?x53 |v16:1|)))
(let ((?x740 (* ?x244 |v8:9|)))
(let ((?x776 (+ (+ (* 9 |v17:0|) (* (- 7) |v9:8|)) (* ?x10 |v10:7|))))
(let ((?x37 (- 18)))
(let ((?x48 (- 3)))
(let ((?x756 (* ?x48 |v14:3|)))
(let ((?x57 14))
(let ((?x156 (* ?x57 |v4:13|)))
(let ((?x82 (- 14)))
(let ((?x216 (* ?x82 |v15:2|)))
(let ((?x767 (+ (+ (+ (* ?x224 |v2:15|) (* 11 |v12:5|)) ?x216) (* ?x45 |v0:17|))))
(let (($x782 (and (<= (+ (+ (+ ?x767 (* (- 9) |v1:16|)) ?x156) ?x756) ?x37) (<= (+ (+ (+ (+ ?x776 ?x740) ?x259) ?x555) ?x80) ?x10))))
(let ((?x139 (- 19)))
(let ((?x574 (* ?x139 |v5:12|)))
(let ((?x753 (+ (+ (* 15 |v4:13|) (* ?x162 |v7:10|)) (* (- 9) |v15:2|))))
(let (($x761 (<= (+ (+ (+ (+ ?x753 (* ?x250 |v7:10|)) ?x756) ?x574) (* ?x95 |v7:10|)) ?x57)))
(let ((?x235 (* ?x24 |v13:4|)))
(let ((?x107 10))
(let ((?x654 (* ?x107 |v6:11|)))
(let ((?x745 (+ (+ (+ (+ (* ?x57 |v5:12|) ?x740) (* (- 11) |v10:7|)) ?x654) ?x235)))
(let (($x762 (or (<= (+ (+ ?x745 (* ?x244 |v7:10|)) (* (- 15) |v14:3|)) ?x57) $x761)))
(let ((?x67 (- 13)))
(let ((?x62 (- 7)))
(let ((?x733 (* ?x62 |v9:8|)))
(let ((?x732 (+ (+ (+ (+ (* ?x53 |v0:17|) ?x726) ?x728) (* ?x24 |v5:12|)) (* (- 20) |v0:17|))))
(let ((?x116 0))
(let ((?x700 (* ?x116 |v17:0|)))
(let ((?x717 (+ (+ (+ (* 7 |v4:13|) |v6:11|) (* (- 6) |v2:15|)) ?x700)))
(let ((?x723 (+ (+ (+ ?x717 (* ?x79 |v15:2|)) (* 9 |v9:8|)) (* ?x82 |v5:12|))))
(let (($x809 (or (or (and (<= ?x723 ?x67) (<= (+ (+ ?x732 ?x733) ?x735) ?x67)) $x762) (and $x782 (or (<= ?x794 ?x159) (<= ?x805 ?x250))))))
(let ((?x46 (* ?x45 |v13:4|)))
(let ((?x704 (+ (+ (+ ?x700 (* ?x250 |v1:16|)) (* (- 20) |v14:3|)) (* 3 |v14:3|))))
(let ((?x557 (* ?x250 |v8:9|)))
(let ((?x406 (* ?x139 |v4:13|)))
(let ((?x693 (+ (+ (+ (* ?x75 |v1:16|) (* ?x139 |v14:3|)) (* 16 |v3:14|)) ?x406)))
(let (($x699 (<= (+ (+ (+ ?x693 (* 16 |v10:7|)) (* ?x95 |v10:7|)) ?x557) ?x45)))
(let (($x711 (and $x699 (<= (+ (+ (+ ?x704 (* ?x224 |v13:4|)) (* ?x162 |v13:4|)) ?x46) ?x224))))
(let ((?x678 (+ (+ (* (- 16) |v11:6|) (* (- 9) |v6:11|)) (* ?x139 |v0:17|))))
(let ((?x684 (+ (+ (+ ?x678 (* ?x45 |v6:11|)) (* 13 |v16:1|)) (* ?x79 |v16:1|))))
(let ((?x72 13))
(let ((?x185 (* ?x72 |v8:9|)))
(let ((?x14 3))
(let ((?x90 (* ?x14 |v9:8|)))
(let ((?x666 (+ (+ (* (- 15) |v5:12|) (* ?x45 |v7:10|)) (* (- 15) |v4:13|))))
(let (($x673 (<= (+ (+ (+ (+ ?x666 ?x90) (* ?x72 |v0:17|)) ?x185) (* ?x162 |v8:9|)) ?x62)))
(let ((?x212 (* ?x62 |v13:4|)))
(let ((?x653 (+ (+ (+ (* ?x162 |v0:17|) (* ?x48 |v17:0|)) (* ?x48 |v12:5|)) (* (- 11) |v12:5|))))
(let ((?x205 8))
(let ((?x503 (* ?x205 |v11:6|)))
(let ((?x307 (- 1)))
(let ((?x529 (* ?x307 |v16:1|)))
(let ((?x151 (- 16)))
(let ((?x469 (* ?x151 |v16:1|)))
(let ((?x642 (+ (+ (+ (* ?x107 |v2:15|) (* 11 |v8:9|)) ?x469) (* 4 |v5:12|))))
(let (($x660 (and (<= (+ (+ (+ ?x642 (* (- 15) |v2:15|)) ?x529) ?x503) ?x62) (<= (+ (+ (+ ?x653 ?x654) (* ?x62 |v4:13|)) ?x212) ?x14))))
(let ((?x33 11))
(let ((?x25 (* ?x24 |v2:15|)))
(let ((?x276 15))
(let ((?x631 (* ?x276 |v4:13|)))
(let ((?x630 (+ (+ (+ (* ?x33 |v7:10|) (* ?x79 |v17:0|)) (* ?x139 |v14:3|)) (* (- 8) |v1:16|))))
(let ((?x68 (* ?x67 |v1:16|)))
(let ((?x300 (* ?x224 |v4:13|)))
(let ((?x617 (+ (+ (* 17 |v12:5|) (* ?x95 |v14:3|)) (* 9 |v11:6|))))
(let ((?x623 (+ (+ (+ (+ ?x617 (* ?x10 |v5:12|)) (* (- 9) |v10:7|)) ?x300) ?x68)))
(let (($x637 (and (<= ?x623 ?x45) (<= (+ (+ (+ ?x630 ?x631) ?x25) (* ?x205 |v10:7|)) ?x33))))
(let (($x713 (or (or $x637 $x660) (and (and $x673 (<= (+ ?x684 (* ?x67 |v16:1|)) ?x37)) $x711))))
(let ((?x209 16))
(let ((?x206 (* ?x205 |v3:14|)))
(let ((?x609 (+ (+ (+ (+ (* ?x33 |v1:16|) (* ?x307 |v6:11|)) (* ?x224 |v7:10|)) ?x529) (* ?x224 |v15:2|))))
(let (($x819 (or (or (<= (+ (+ ?x609 (* ?x307 |v15:2|)) ?x206) ?x209) (and $x713 $x809)) (<= (+ (+ (+ ?x814 ?x726) ?x728) ?x735) ?x224))))
(let ((?x593 (* ?x33 |v8:9|)))
(let ((?x590 (+ (+ (+ (* ?x151 |v14:3|) (* ?x139 |v1:16|)) (* ?x24 |v5:12|)) (* ?x95 |v17:0|))))
(let ((?x333 (* ?x24 |v1:16|)))
(let ((?x140 (* ?x139 |v3:14|)))
(let ((?x579 (+ (+ (+ (+ (* ?x62 |v1:16|) ?x574) (* 7 |v10:7|)) ?x140) ?x333)))
(let (($x597 (or (<= (+ (+ ?x579 (* (- 11) |v16:1|)) (* ?x151 |v9:8|)) ?x307) (<= (+ (+ (+ ?x590 (* (- 6) |v12:5|)) ?x593) ?x90) ?x244))))
(let ((?x40 (- 20)))
(let ((?x294 (* ?x40 |v1:16|)))
(let ((?x566 (* ?x48 |v12:5|)))
(let ((?x565 (+ (+ (+ (* ?x53 |v9:8|) (* ?x33 |v6:11|)) (* 17 |v15:2|)) |v12:5|)))
(let ((?x430 (* ?x40 |v8:9|)))
(let ((?x83 (* ?x82 |v2:15|)))
(let ((?x556 (+ (+ (+ (+ ?x430 (* 17 |v3:14|)) (* ?x107 |v17:0|)) ?x83) ?x555)))
(let (($x572 (or (<= (+ (+ ?x556 ?x557) ?x430) ?x14) (<= (+ (+ (+ ?x565 ?x566) ?x294) (* 17 |v16:1|)) ?x79))))
(let ((?x119 (- 15)))
(let ((?x441 (* ?x57 |v15:2|)))
(let ((?x543 (+ (+ (+ (* ?x79 |v3:14|) (* ?x14 |v15:2|)) (* ?x62 |v6:11|)) (* ?x107 |v15:2|))))
(let (($x549 (<= (+ (+ (+ ?x543 (* (- 9) |v14:3|)) (* ?x244 |v0:17|)) ?x441) ?x119)))
(let ((?x338 (* ?x209 |v7:10|)))
(let ((?x526 (+ (+ (* 7 |v13:4|) (* (- 9) |v12:5|)) (* ?x95 |v0:17|))))
(let ((?x533 (+ (+ (+ (+ ?x526 (* ?x159 |v16:1|)) ?x529) ?x338) (* 7 |v3:14|))))
(let ((?x515 (+ (+ (+ (* ?x33 |v1:16|) (* 17 |v1:16|)) (* ?x116 |v8:9|)) ?x514)))
(let ((?x521 (+ (+ (+ ?x515 (* ?x162 |v9:8|)) (* ?x33 |v15:2|)) (* (- 11) |v15:2|))))
(let ((?x19 7))
(let ((?x240 (* ?x19 |v12:5|)))
(let ((?x501 (+ (+ (+ (* ?x37 |v11:6|) (* ?x79 |v13:4|)) (* (- 9) |v7:10|)) (* 9 |v5:12|))))
(let ((?x245 (* ?x244 |v11:6|)))
(let ((?x380 (* ?x14 |v2:15|)))
(let ((?x490 (+ (+ (+ (* ?x14 |v8:9|) (* (- 8) |v8:9|)) (* ?x209 |v4:13|)) (* (- 9) |v16:1|))))
(let (($x508 (and (<= (+ (+ (+ ?x490 ?x380) ?x283) ?x245) ?x53) (<= (+ (+ (+ ?x501 ?x240) ?x503) (* ?x57 |v8:9|)) ?x244))))
(let ((?x476 (+ (+ (+ (* ?x116 |v10:7|) (* ?x67 |v10:7|)) (* ?x14 |v12:5|)) (* ?x307 |v12:5|))))
(let ((?x482 (+ (+ (+ ?x476 (* ?x82 |v17:0|)) (* (- 6) |v3:14|)) (* ?x159 |v2:15|))))
(let ((?x286 17))
(let ((?x463 (* ?x79 |v17:0|)))
(let ((?x466 (+ (+ (+ (+ (* ?x48 |v16:1|) (* ?x209 |v16:1|)) (* ?x62 |v0:17|)) ?x463) (* (- 8) |v4:13|))))
(let (($x537 (and (and (<= (+ (+ ?x466 (* ?x24 |v0:17|)) ?x469) ?x286) (<= ?x482 ?x205)) (or $x508 (and (<= ?x521 ?x159) (<= ?x533 ?x107))))))
(let ((?x142 (- 5)))
(let ((?x451 (+ (+ (+ (* (- 6) |v10:7|) (* ?x37 |v1:16|)) (* ?x40 |v3:14|)) ?x212)))
(let (($x457 (<= (+ (+ (+ ?x451 ?x80) (* (- 11) |v13:4|)) (* ?x37 |v17:0|)) ?x142)))
(let ((?x194 (- 9)))
(let ((?x439 (* ?x194 |v12:5|)))
(let ((?x438 (+ (+ (+ (+ ?x430 (* ?x33 |v4:13|)) (* ?x139 |v1:16|)) (* ?x107 |v16:1|)) (* ?x159 |v14:3|))))
(let ((?x63 (* ?x62 |v11:6|)))
(let ((?x423 (* ?x116 |v10:7|)))
(let ((?x426 (+ (+ (+ (+ (* ?x48 |v11:6|) (* ?x151 |v0:17|)) (* ?x72 |v13:4|)) ?x423) (* ?x224 |v16:1|))))
(let (($x444 (and (<= (+ (+ ?x426 ?x267) ?x63) ?x33) (<= (+ (+ ?x438 ?x439) ?x441) ?x62))))
(let ((?x384 (* ?x276 |v2:15|)))
(let ((?x414 (* ?x162 |v7:10|)))
(let ((?x412 (+ (+ (+ ?x406 (* (- 8) |v11:6|)) (* ?x33 |v6:11|)) (* ?x75 |v4:13|))))
(let ((?x400 (+ (+ (+ (+ (* 4 |v4:13|) ?x212) (* ?x72 |v9:8|)) ?x259) (* ?x276 |v17:0|))))
(let (($x418 (and (<= (+ (+ ?x400 (* ?x119 |v1:16|)) (* ?x162 |v14:3|)) ?x139) (<= (+ (+ (+ ?x412 ?x338) ?x414) ?x384) ?x142))))
(let ((?x387 (+ (+ (+ (+ (* ?x14 |v3:14|) ?x380) (* ?x116 |v4:13|)) ?x384) (* ?x307 |v13:4|))))
(let ((?x302 (* ?x276 |v0:17|)))
(let ((?x371 (+ (+ (+ (* ?x40 |v14:3|) (* ?x116 |v13:4|)) (* ?x33 |v5:12|)) (* ?x79 |v9:8|))))
(let ((?x322 (* ?x40 |v16:1|)))
(let ((?x358 (+ (+ (+ (* ?x250 |v1:16|) (* 4 |v12:5|)) (* ?x82 |v11:6|)) ?x90)))
(let (($x378 (and (<= (+ (+ (+ ?x358 ?x322) (* ?x205 |v7:10|)) (* ?x72 |v4:13|)) ?x33) (<= (+ (+ (+ ?x371 (* ?x79 |v12:5|)) (* ?x19 |v5:12|)) ?x302) ?x62))))
(let (($x446 (and (or $x378 (<= (+ (+ ?x387 (* ?x119 |v16:1|)) (* ?x33 |v10:7|)) ?x142)) (and $x418 $x444))))
(let ((?x279 (* ?x75 |v2:15|)))
(let ((?x342 (+ (+ (+ (+ (* ?x45 |v4:13|) (* ?x62 |v12:5|)) ?x338) (* ?x40 |v2:15|)) ?x279)))
(let ((?x175 4))
(let ((?x330 (+ (+ (+ (+ (* ?x82 |v1:16|) ?x322) (* ?x48 |v10:7|)) (* ?x53 |v7:10|)) (* ?x10 |v4:13|))))
(let (($x348 (and (<= (+ (+ ?x330 (* (- 8) |v7:10|)) ?x333) ?x175) (<= (+ (+ ?x342 (* ?x40 |v5:12|)) (* ?x139 |v10:7|)) ?x119))))
(let ((?x317 (* ?x48 |v16:1|)))
(let ((?x312 (+ (+ (+ (* ?x250 |v9:8|) (* ?x307 |v11:6|)) (* ?x107 |v5:12|)) (* ?x119 |v7:10|))))
(let ((?x298 (* ?x72 |v13:4|)))
(let ((?x299 (+ (+ (+ (+ ?x245 (* (- 6) |v15:2|)) ?x294) (* ?x209 |v4:13|)) ?x298)))
(let (($x320 (or (<= (+ (+ ?x299 ?x300) ?x302) ?x95) (<= (+ (+ (+ ?x312 (* ?x224 |v9:8|)) ?x315) ?x317) ?x286))))
(let ((?x230 (- 8)))
(let ((?x287 (* ?x286 |v12:5|)))
(let ((?x282 (+ (+ (+ (+ (* ?x205 |v17:0|) (* ?x250 |v5:12|)) (* ?x276 |v6:11|)) ?x279) (* ?x19 |v8:9|))))
(let ((?x264 (+ (+ (+ (* ?x250 |v16:1|) ?x259) (* ?x230 |v0:17|)) (* 9 |v16:1|))))
(let (($x290 (or (<= (+ (+ (+ ?x264 (* ?x230 |v2:15|)) ?x267) (* ?x209 |v11:6|)) ?x37) (<= (+ (+ ?x282 ?x283) ?x287) ?x230))))
(let ((?x123 (* ?x53 |v2:15|)))
(let ((?x252 (+ (+ (+ (+ ?x240 (* ?x205 |v1:16|)) ?x245) (* ?x40 |v6:11|)) (* ?x250 |v11:6|))))
(let ((?x232 (+ (+ (+ (* ?x67 |v7:10|) (* ?x224 |v2:15|)) (* ?x62 |v12:5|)) (* ?x230 |v17:0|))))
(let (($x257 (and (<= (+ (+ (+ ?x232 (* ?x79 |v8:9|)) ?x235) (* ?x62 |v15:2|)) ?x159) (<= (+ (+ ?x252 (* ?x48 |v9:8|)) ?x123) ?x175))))
(let ((?x211 (+ (+ (+ (* 9 |v12:5|) (* ?x142 |v14:3|)) ?x206) (* ?x209 |v1:16|))))
(let ((?x190 (+ (+ (+ (+ (* ?x82 |v8:9|) (* ?x48 |v0:17|)) ?x185) (* ?x67 |v14:3|)) (* ?x162 |v3:14|))))
(let (($x220 (or (<= (+ (+ ?x190 (* ?x37 |v7:10|)) (* ?x194 |v8:9|)) ?x151) (<= (+ (+ (+ ?x211 ?x212) (* ?x142 |v13:4|)) ?x216) 1))))
(let ((?x171 (+ (+ (+ (* ?x142 |v16:1|) (* ?x40 |v3:14|)) (* ?x72 |v6:11|)) (* ?x162 |v15:2|))))
(let (($x180 (<= (+ (+ (+ ?x171 (* ?x151 |v7:10|)) (* ?x175 |v3:14|)) (* ?x142 |v9:8|)) ?x45)))
(let ((?x153 (+ (+ (+ ?x140 (* ?x142 |v15:2|)) (* (- 6) |v8:9|)) (* ?x151 |v17:0|))))
(let (($x181 (or (<= (+ (+ (+ ?x153 (* ?x57 |v6:11|)) ?x156) (* ?x159 |v5:12|)) ?x162) $x180)))
(let ((?x132 (* ?x14 |v15:2|)))
(let ((?x130 (+ (+ (+ (+ (* ?x107 |v5:12|) ?x123) (* ?x116 |v5:12|)) (* ?x95 |v13:4|)) (* ?x107 |v0:17|))))
(let ((?x109 (+ (+ (+ (* ?x82 |v14:3|) (* ?x67 |v7:10|)) (* ?x75 |v11:6|)) (* ?x107 |v8:9|))))
(let (($x120 (<= (+ (+ (+ ?x109 (* ?x33 |v3:14|)) (* ?x75 |v9:8|)) (* ?x116 |v12:5|)) ?x119)))
(let ((?x92 (+ (+ (+ (+ (+ ?x80 ?x83) (* ?x62 |v8:9|)) (* ?x19 |v4:13|)) ?x90) ?x90)))
(let ((?x64 (+ (+ (+ (+ ?x46 (* ?x48 |v2:15|)) (* ?x53 |v6:11|)) (* ?x57 |v2:15|)) ?x63)))
(let (($x97 (or (<= (+ (+ ?x64 ?x68) (* ?x72 |v15:2|)) ?x75) (<= (+ ?x92 (* ?x45 |v8:9|)) ?x95))))
(let (($x222 (and (or $x97 (and $x120 (<= (+ (+ ?x130 |v2:15|) ?x132) ?x72))) (and $x181 $x220))))
(let ((?x34 (* ?x33 |v12:5|)))
(let ((?x31 (+ (+ (+ (+ (* ?x10 |v8:9|) (* ?x14 |v12:5|)) (* ?x19 |v9:8|)) ?x25) (* (- 11) |v0:17|))))
(let (($x352 (and (<= (+ (+ ?x31 ?x34) (* ?x37 |v0:17|)) ?x40) (and $x222 (or (or $x257 $x290) (or $x320 $x348))))))
(and (or $x352 (and (or $x446 $x457) (or $x537 (and $x549 (and $x572 $x597))))) $x819)))))))))))))))))))))))))))))))))))))))))))))))))))))))))))))))))))))))))))))))))))))))))))))))))))))))))))))))))))))))))))))))))))))))))))))))))))))))))))))))))))))))))))))))))))))))))))))))))
)
)
)
)
)
)
)
)
)
)
)
)
)
)
)
)
)
)
(check-sat)
(exit)

